clingo version 5.3.0
Reading from ...6_n66_r11_s16_ps1_pr16_u16_o11_N029.lp ...
Solving...
Solving...
Solving...
Solving...
Solving...
Solving...
Solving...
Solving...
Solving...
Solving...
Solving...
Solving...
Solving...
Solving...
Solving...
Solving...
Solving...
Solving...
Solving...
Solving...
Solving...
Solving...
Solving...
Solving...
Solving...
Solving...
Solving...
Solving...
Solving...
Solving...
Solving...
Answer: 1
init(object(order,1),value(pickingStation,1)) init(object(order,2),value(pickingStation,1)) init(object(order,3),value(pickingStation,1)) init(object(order,4),value(pickingStation,1)) init(object(order,5),value(pickingStation,1)) init(object(order,6),value(pickingStation,1)) init(object(order,7),value(pickingStation,1)) init(object(order,8),value(pickingStation,1)) init(object(order,9),value(pickingStation,1)) init(object(order,10),value(pickingStation,1)) init(object(order,11),value(pickingStation,1)) init(object(highway,1),value(at,(1,1))) init(object(highway,2),value(at,(2,1))) init(object(highway,3),value(at,(3,1))) init(object(highway,4),value(at,(4,1))) init(object(highway,5),value(at,(5,1))) init(object(highway,7),value(at,(7,1))) init(object(highway,8),value(at,(8,1))) init(object(highway,9),value(at,(9,1))) init(object(highway,10),value(at,(10,1))) init(object(highway,11),value(at,(11,1))) init(object(highway,12),value(at,(1,2))) init(object(highway,13),value(at,(2,2))) init(object(highway,14),value(at,(3,2))) init(object(highway,15),value(at,(4,2))) init(object(highway,16),value(at,(5,2))) init(object(highway,17),value(at,(6,2))) init(object(highway,18),value(at,(7,2))) init(object(highway,19),value(at,(8,2))) init(object(highway,20),value(at,(9,2))) init(object(highway,21),value(at,(10,2))) init(object(highway,22),value(at,(11,2))) init(object(highway,23),value(at,(1,3))) init(object(highway,28),value(at,(6,3))) init(object(highway,33),value(at,(11,3))) init(object(highway,34),value(at,(1,4))) init(object(highway,39),value(at,(6,4))) init(object(highway,44),value(at,(11,4))) init(object(highway,45),value(at,(1,5))) init(object(highway,46),value(at,(2,5))) init(object(highway,47),value(at,(3,5))) init(object(highway,48),value(at,(4,5))) init(object(highway,49),value(at,(5,5))) init(object(highway,50),value(at,(6,5))) init(object(highway,51),value(at,(7,5))) init(object(highway,52),value(at,(8,5))) init(object(highway,53),value(at,(9,5))) init(object(highway,54),value(at,(10,5))) init(object(highway,55),value(at,(11,5))) init(object(node,1),value(at,(1,1))) init(object(node,2),value(at,(2,1))) init(object(node,3),value(at,(3,1))) init(object(node,4),value(at,(4,1))) init(object(node,5),value(at,(5,1))) init(object(node,6),value(at,(6,1))) init(object(node,7),value(at,(7,1))) init(object(node,8),value(at,(8,1))) init(object(node,9),value(at,(9,1))) init(object(node,10),value(at,(10,1))) init(object(node,11),value(at,(11,1))) init(object(node,12),value(at,(1,2))) init(object(node,13),value(at,(2,2))) init(object(node,14),value(at,(3,2))) init(object(node,15),value(at,(4,2))) init(object(node,16),value(at,(5,2))) init(object(node,17),value(at,(6,2))) init(object(node,18),value(at,(7,2))) init(object(node,19),value(at,(8,2))) init(object(node,20),value(at,(9,2))) init(object(node,21),value(at,(10,2))) init(object(node,22),value(at,(11,2))) init(object(node,23),value(at,(1,3))) init(object(node,24),value(at,(2,3))) init(object(node,25),value(at,(3,3))) init(object(node,26),value(at,(4,3))) init(object(node,27),value(at,(5,3))) init(object(node,28),value(at,(6,3))) init(object(node,29),value(at,(7,3))) init(object(node,30),value(at,(8,3))) init(object(node,31),value(at,(9,3))) init(object(node,32),value(at,(10,3))) init(object(node,33),value(at,(11,3))) init(object(node,34),value(at,(1,4))) init(object(node,35),value(at,(2,4))) init(object(node,36),value(at,(3,4))) init(object(node,37),value(at,(4,4))) init(object(node,38),value(at,(5,4))) init(object(node,39),value(at,(6,4))) init(object(node,40),value(at,(7,4))) init(object(node,41),value(at,(8,4))) init(object(node,42),value(at,(9,4))) init(object(node,43),value(at,(10,4))) init(object(node,44),value(at,(11,4))) init(object(node,45),value(at,(1,5))) init(object(node,46),value(at,(2,5))) init(object(node,47),value(at,(3,5))) init(object(node,48),value(at,(4,5))) init(object(node,49),value(at,(5,5))) init(object(node,50),value(at,(6,5))) init(object(node,51),value(at,(7,5))) init(object(node,52),value(at,(8,5))) init(object(node,53),value(at,(9,5))) init(object(node,54),value(at,(10,5))) init(object(node,55),value(at,(11,5))) init(object(node,56),value(at,(1,6))) init(object(node,57),value(at,(2,6))) init(object(node,58),value(at,(3,6))) init(object(node,59),value(at,(4,6))) init(object(node,60),value(at,(5,6))) init(object(node,61),value(at,(6,6))) init(object(node,62),value(at,(7,6))) init(object(node,63),value(at,(8,6))) init(object(node,64),value(at,(9,6))) init(object(node,65),value(at,(10,6))) init(object(node,66),value(at,(11,6))) init(object(order,1),value(line,(9,1))) init(object(order,2),value(line,(16,1))) init(object(order,3),value(line,(4,1))) init(object(order,4),value(line,(10,1))) init(object(order,5),value(line,(11,1))) init(object(order,6),value(line,(12,1))) init(object(order,7),value(line,(6,1))) init(object(order,8),value(line,(13,1))) init(object(order,9),value(line,(5,1))) init(object(order,10),value(line,(3,1))) init(object(order,11),value(line,(7,1))) init(object(pickingStation,1),value(at,(6,1))) init(object(product,1),value(on,(1,1))) init(object(product,2),value(on,(16,1))) init(object(product,3),value(on,(15,1))) init(object(product,4),value(on,(14,1))) init(object(product,5),value(on,(13,1))) init(object(product,6),value(on,(12,1))) init(object(product,7),value(on,(11,1))) init(object(product,8),value(on,(10,1))) init(object(product,9),value(on,(9,1))) init(object(product,10),value(on,(8,1))) init(object(product,11),value(on,(7,1))) init(object(product,12),value(on,(6,1))) init(object(product,13),value(on,(3,1))) init(object(product,14),value(on,(5,1))) init(object(product,15),value(on,(2,1))) init(object(product,16),value(on,(4,1))) init(object(robot,1),value(at,(1,6))) init(object(robot,2),value(at,(2,6))) init(object(robot,3),value(at,(3,6))) init(object(robot,4),value(at,(4,6))) init(object(robot,5),value(at,(5,6))) init(object(robot,6),value(at,(9,6))) init(object(robot,7),value(at,(6,6))) init(object(robot,8),value(at,(7,6))) init(object(robot,9),value(at,(10,6))) init(object(robot,10),value(at,(8,6))) init(object(robot,11),value(at,(11,6))) init(object(shelf,1),value(at,(3,3))) init(object(shelf,2),value(at,(4,4))) init(object(shelf,3),value(at,(7,4))) init(object(shelf,4),value(at,(9,3))) init(object(shelf,5),value(at,(8,4))) init(object(shelf,6),value(at,(8,3))) init(object(shelf,7),value(at,(10,3))) init(object(shelf,8),value(at,(5,3))) init(object(shelf,9),value(at,(9,4))) init(object(shelf,10),value(at,(5,4))) init(object(shelf,11),value(at,(7,3))) init(object(shelf,12),value(at,(3,4))) init(object(shelf,13),value(at,(2,4))) init(object(shelf,14),value(at,(2,3))) init(object(shelf,15),value(at,(10,4))) init(object(shelf,16),value(at,(4,3))) occurs(object(robot,1),action(move,(0,-1)),1) occurs(object(robot,2),action(move,(0,-1)),1) occurs(object(robot,3),action(move,(0,-1)),1) occurs(object(robot,4),action(move,(1,0)),1) occurs(object(robot,5),action(move,(0,-1)),1) occurs(object(robot,6),action(move,(0,-1)),1) occurs(object(robot,7),action(move,(0,-1)),1) occurs(object(robot,8),action(move,(0,-1)),1) occurs(object(robot,9),action(move,(0,-1)),1) occurs(object(robot,10),action(move,(-1,0)),1) occurs(object(robot,11),action(move,(0,-1)),1) occurs(object(robot,1),action(move,(0,-1)),2) occurs(object(robot,2),action(move,(0,-1)),2) occurs(object(robot,3),action(move,(0,-1)),2) occurs(object(robot,4),action(move,(0,-1)),2) occurs(object(robot,5),action(move,(-1,0)),2) occurs(object(robot,6),action(move,(0,-1)),2) occurs(object(robot,7),action(move,(0,-1)),2) occurs(object(robot,8),action(move,(0,-1)),2) occurs(object(robot,9),action(move,(-1,0)),2) occurs(object(robot,10),action(move,(0,-1)),2) occurs(object(robot,11),action(move,(0,-1)),2) occurs(object(robot,1),action(move,(0,-1)),3) occurs(object(robot,4),action(move,(0,-1)),3) occurs(object(robot,5),action(move,(0,-1)),3) occurs(object(robot,6),action(move,(0,-1)),3) occurs(object(robot,7),action(move,(0,-1)),3) occurs(object(robot,8),action(move,(0,-1)),3) occurs(object(robot,9),action(move,(-1,0)),3) occurs(object(robot,10),action(move,(0,-1)),3) occurs(object(robot,11),action(move,(-1,0)),3) occurs(object(robot,2),action(pickup,()),3) occurs(object(robot,3),action(pickup,()),3) occurs(object(robot,1),action(move,(1,0)),4) occurs(object(robot,2),action(move,(1,0)),4) occurs(object(robot,3),action(move,(0,1)),4) occurs(object(robot,7),action(move,(-1,0)),4) occurs(object(robot,9),action(move,(0,-1)),4) occurs(object(robot,11),action(move,(-1,0)),4) occurs(object(robot,4),action(pickup,()),4) occurs(object(robot,5),action(pickup,()),4) occurs(object(robot,6),action(pickup,()),4) occurs(object(robot,8),action(pickup,()),4) occurs(object(robot,10),action(pickup,()),4) occurs(object(robot,2),action(move,(1,0)),5) occurs(object(robot,3),action(move,(0,-1)),5) occurs(object(robot,4),action(move,(1,0)),5) occurs(object(robot,5),action(move,(1,0)),5) occurs(object(robot,6),action(move,(0,-1)),5) occurs(object(robot,8),action(move,(0,-1)),5) occurs(object(robot,10),action(move,(0,-1)),5) occurs(object(robot,1),action(pickup,()),5) occurs(object(robot,7),action(pickup,()),5) occurs(object(robot,9),action(pickup,()),5) occurs(object(robot,11),action(pickup,()),5) occurs(object(robot,1),action(move,(0,-1)),6) occurs(object(robot,2),action(move,(1,0)),6) occurs(object(robot,3),action(move,(1,0)),6) occurs(object(robot,4),action(move,(0,-1)),6) occurs(object(robot,5),action(move,(1,0)),6) occurs(object(robot,6),action(move,(-1,0)),6) occurs(object(robot,7),action(move,(0,-1)),6) occurs(object(robot,8),action(move,(0,-1)),6) occurs(object(robot,9),action(move,(1,0)),6) occurs(object(robot,10),action(move,(0,-1)),6) occurs(object(robot,11),action(move,(0,-1)),6) occurs(object(robot,2),action(move,(0,-1)),7) occurs(object(robot,3),action(move,(1,0)),7) occurs(object(robot,4),action(move,(0,-1)),7) occurs(object(robot,5),action(move,(1,0)),7) occurs(object(robot,6),action(move,(0,-1)),7) occurs(object(robot,7),action(move,(-1,0)),7) occurs(object(robot,8),action(move,(-1,0)),7) occurs(object(robot,10),action(move,(1,0)),7) occurs(object(robot,1),action(putdown,()),7) occurs(object(robot,9),action(putdown,()),7) occurs(object(robot,11),action(putdown,()),7) occurs(object(robot,2),action(move,(0,-1)),8) occurs(object(robot,3),action(move,(1,0)),8) occurs(object(robot,4),action(move,(0,1)),8) occurs(object(robot,5),action(move,(1,0)),8) occurs(object(robot,6),action(move,(-1,0)),8) occurs(object(robot,7),action(move,(-1,0)),8) occurs(object(robot,9),action(move,(0,-1)),8) occurs(object(robot,11),action(move,(1,0)),8) occurs(object(robot,10),action(putdown,()),8) occurs(object(robot,1),action(pickup,()),8) occurs(object(robot,8),action(deliver,(11,7,1)),8) occurs(object(robot,1),action(move,(1,0)),9) occurs(object(robot,3),action(move,(0,-1)),9) occurs(object(robot,4),action(move,(-1,0)),9) occurs(object(robot,6),action(move,(-1,0)),9) occurs(object(robot,7),action(move,(0,-1)),9) occurs(object(robot,8),action(move,(0,1)),9) occurs(object(robot,10),action(move,(0,1)),9) occurs(object(robot,11),action(move,(1,0)),9) occurs(object(robot,5),action(putdown,()),9) occurs(object(robot,9),action(pickup,()),9) occurs(object(robot,1),action(move,(1,0)),10) occurs(object(robot,2),action(move,(1,0)),10) occurs(object(robot,3),action(move,(1,0)),10) occurs(object(robot,4),action(move,(0,-1)),10) occurs(object(robot,5),action(move,(0,-1)),10) occurs(object(robot,8),action(move,(0,1)),10) occurs(object(robot,10),action(move,(0,-1)),10) occurs(object(robot,11),action(move,(-1,0)),10) occurs(object(robot,9),action(putdown,()),10) occurs(object(robot,6),action(deliver,(2,16,1)),10) occurs(object(robot,1),action(move,(0,-1)),11) occurs(object(robot,2),action(move,(0,-1)),11) occurs(object(robot,3),action(move,(0,-1)),11) occurs(object(robot,4),action(move,(1,0)),11) occurs(object(robot,5),action(move,(0,-1)),11) occurs(object(robot,6),action(move,(-1,0)),11) occurs(object(robot,7),action(move,(0,1)),11) occurs(object(robot,8),action(move,(-1,0)),11) occurs(object(robot,9),action(move,(-1,0)),11) occurs(object(robot,10),action(move,(0,-1)),11) occurs(object(robot,11),action(pickup,()),11) occurs(object(robot,1),action(move,(1,0)),12) occurs(object(robot,3),action(move,(0,1)),12) occurs(object(robot,4),action(move,(1,0)),12) occurs(object(robot,5),action(move,(0,-1)),12) occurs(object(robot,6),action(move,(0,1)),12) occurs(object(robot,7),action(move,(1,0)),12) occurs(object(robot,8),action(move,(0,1)),12) occurs(object(robot,10),action(move,(-1,0)),12) occurs(object(robot,11),action(move,(0,-1)),12) occurs(object(robot,9),action(pickup,()),12) occurs(object(robot,2),action(deliver,(9,5,1)),12) occurs(object(robot,1),action(move,(1,0)),13) occurs(object(robot,2),action(move,(0,1)),13) occurs(object(robot,3),action(move,(0,1)),13) occurs(object(robot,6),action(move,(0,1)),13) occurs(object(robot,7),action(move,(1,0)),13) occurs(object(robot,8),action(move,(-1,0)),13) occurs(object(robot,9),action(move,(-1,0)),13) occurs(object(robot,11),action(move,(1,0)),13) occurs(object(robot,4),action(putdown,()),13) occurs(object(robot,3),action(move,(-1,0)),14) occurs(object(robot,4),action(move,(1,0)),14) occurs(object(robot,5),action(move,(-1,0)),14) occurs(object(robot,7),action(move,(0,-1)),14) occurs(object(robot,9),action(move,(-1,0)),14) occurs(object(robot,10),action(move,(0,1)),14) occurs(object(robot,11),action(move,(-1,0)),14) occurs(object(robot,2),action(putdown,()),14) occurs(object(robot,6),action(putdown,()),14) occurs(object(robot,1),action(deliver,(3,4,1)),14) occurs(object(robot,1),action(move,(1,0)),15) occurs(object(robot,4),action(move,(1,0)),15) occurs(object(robot,5),action(move,(0,1)),15) occurs(object(robot,6),action(move,(0,1)),15) occurs(object(robot,7),action(move,(1,0)),15) occurs(object(robot,10),action(move,(0,1)),15) occurs(object(robot,11),action(move,(0,-1)),15) occurs(object(robot,3),action(putdown,()),15) occurs(object(robot,8),action(putdown,()),15) occurs(object(robot,2),action(pickup,()),15) occurs(object(robot,2),action(move,(-1,0)),16) occurs(object(robot,3),action(move,(1,0)),16) occurs(object(robot,6),action(move,(1,0)),16) occurs(object(robot,8),action(move,(0,-1)),16) occurs(object(robot,9),action(move,(0,-1)),16) occurs(object(robot,11),action(move,(-1,0)),16) occurs(object(robot,5),action(pickup,()),16) occurs(object(robot,7),action(deliver,(4,10,1)),16) occurs(object(robot,1),action(move,(0,1)),17) occurs(object(robot,2),action(move,(0,-1)),17) occurs(object(robot,3),action(move,(1,0)),17) occurs(object(robot,4),action(move,(0,1)),17) occurs(object(robot,5),action(move,(-1,0)),17) occurs(object(robot,7),action(move,(1,0)),17) occurs(object(robot,8),action(move,(1,0)),17) occurs(object(robot,9),action(move,(0,-1)),17) occurs(object(robot,10),action(move,(1,0)),17) occurs(object(robot,11),action(move,(-1,0)),17) occurs(object(robot,6),action(pickup,()),17) occurs(object(robot,1),action(move,(0,1)),18) occurs(object(robot,2),action(move,(0,1)),18) occurs(object(robot,3),action(move,(1,0)),18) occurs(object(robot,7),action(move,(0,1)),18) occurs(object(robot,10),action(move,(0,-1)),18) occurs(object(robot,11),action(move,(-1,0)),18) occurs(object(robot,4),action(pickup,()),18) occurs(object(robot,9),action(deliver,(6,12,1)),18) occurs(object(robot,1),action(move,(1,0)),19) occurs(object(robot,2),action(move,(-1,0)),19) occurs(object(robot,3),action(move,(1,0)),19) occurs(object(robot,4),action(move,(0,-1)),19) occurs(object(robot,5),action(move,(1,0)),19) occurs(object(robot,6),action(move,(0,-1)),19) occurs(object(robot,7),action(move,(0,1)),19) occurs(object(robot,8),action(move,(0,1)),19) occurs(object(robot,9),action(move,(-1,0)),19) occurs(object(robot,11),action(move,(-1,0)),19) occurs(object(robot,10),action(pickup,()),19) occurs(object(robot,4),action(move,(-1,0)),20) occurs(object(robot,5),action(move,(0,1)),20) occurs(object(robot,6),action(move,(0,-1)),20) occurs(object(robot,7),action(move,(-1,0)),20) occurs(object(robot,8),action(move,(-1,0)),20) occurs(object(robot,9),action(move,(0,1)),20) occurs(object(robot,10),action(move,(0,-1)),20) occurs(object(robot,1),action(putdown,()),20) occurs(object(robot,3),action(pickup,()),20) occurs(object(robot,11),action(deliver,(5,11,1)),20) occurs(object(robot,1),action(move,(0,-1)),21) occurs(object(robot,2),action(move,(-1,0)),21) occurs(object(robot,3),action(move,(0,-1)),21) occurs(object(robot,4),action(move,(-1,0)),21) occurs(object(robot,6),action(move,(0,-1)),21) occurs(object(robot,9),action(move,(-1,0)),21) occurs(object(robot,11),action(move,(1,0)),21) occurs(object(robot,5),action(putdown,()),21) occurs(object(robot,7),action(putdown,()),21) occurs(object(robot,10),action(putdown,()),21) occurs(object(robot,1),action(move,(0,-1)),22) occurs(object(robot,2),action(move,(-1,0)),22) occurs(object(robot,3),action(move,(0,-1)),22) occurs(object(robot,4),action(move,(-1,0)),22) occurs(object(robot,5),action(move,(1,0)),22) occurs(object(robot,7),action(move,(1,0)),22) occurs(object(robot,8),action(move,(0,-1)),22) occurs(object(robot,10),action(move,(1,0)),22) occurs(object(robot,11),action(move,(0,1)),22) occurs(object(robot,9),action(putdown,()),22) occurs(object(robot,6),action(deliver,(7,6,1)),22) occurs(object(robot,2),action(move,(-1,0)),23) occurs(object(robot,3),action(move,(-1,0)),23) occurs(object(robot,4),action(move,(0,-1)),23) occurs(object(robot,5),action(move,(0,-1)),23) occurs(object(robot,6),action(move,(1,0)),23) occurs(object(robot,8),action(move,(1,0)),23) occurs(object(robot,9),action(move,(-1,0)),23) occurs(object(robot,1),action(pickup,()),23) occurs(object(robot,7),action(pickup,()),23) occurs(object(robot,1),action(move,(-1,0)),24) occurs(object(robot,2),action(move,(1,0)),24) occurs(object(robot,3),action(move,(-1,0)),24) occurs(object(robot,5),action(move,(0,-1)),24) occurs(object(robot,6),action(move,(0,1)),24) occurs(object(robot,7),action(move,(0,1)),24) occurs(object(robot,9),action(move,(1,0)),24) occurs(object(robot,10),action(move,(1,0)),24) occurs(object(robot,11),action(move,(0,1)),24) occurs(object(robot,4),action(deliver,(1,9,1)),24) occurs(object(robot,1),action(move,(-1,0)),25) occurs(object(robot,2),action(move,(1,0)),25) occurs(object(robot,3),action(move,(0,-1)),25) occurs(object(robot,4),action(move,(-1,0)),25) occurs(object(robot,5),action(move,(1,0)),25) occurs(object(robot,6),action(move,(0,1)),25) occurs(object(robot,7),action(move,(-1,0)),25) occurs(object(robot,8),action(move,(-1,0)),25) occurs(object(robot,10),action(move,(0,1)),25) occurs(object(robot,11),action(move,(0,1)),25) occurs(object(robot,3),action(move,(-1,0)),26) occurs(object(robot,4),action(move,(-1,0)),26) occurs(object(robot,5),action(move,(0,1)),26) occurs(object(robot,6),action(move,(0,-1)),26) occurs(object(robot,10),action(move,(0,-1)),26) occurs(object(robot,7),action(putdown,()),26) occurs(object(robot,9),action(pickup,()),26) occurs(object(robot,1),action(deliver,(8,13,1)),26) occurs(object(robot,1),action(move,(0,1)),27) occurs(object(robot,2),action(move,(-1,0)),27) occurs(object(robot,3),action(move,(-1,0)),27) occurs(object(robot,4),action(move,(-1,0)),27) occurs(object(robot,5),action(move,(0,1)),27) occurs(object(robot,6),action(move,(1,0)),27) occurs(object(robot,9),action(move,(0,-1)),27) occurs(object(robot,10),action(move,(-1,0)),27) occurs(object(robot,11),action(putdown,()),27) occurs(object(robot,7),action(pickup,()),27) occurs(object(robot,4),action(move,(0,1)),28) occurs(object(robot,9),action(move,(-1,0)),28) occurs(object(robot,10),action(move,(-1,0)),28) occurs(object(robot,3),action(deliver,(10,3,1)),28) occurs(object(robot,1),action(move,(-1,0)),29) occurs(object(robot,2),action(move,(-1,0)),29) occurs(object(robot,3),action(move,(-1,0)),29) occurs(object(robot,4),action(move,(1,0)),29) occurs(object(robot,5),action(move,(0,-1)),29) occurs(object(robot,10),action(move,(-1,0)),29) occurs(object(robot,11),action(move,(1,0)),29) occurs(object(robot,6),action(putdown,()),29) occurs(object(robot,5),action(move,(0,1)),30) occurs(object(robot,8),action(move,(1,0)),30) occurs(object(robot,11),action(move,(0,1)),30) occurs(object(robot,1),action(putdown,()),30) occurs(object(robot,2),action(putdown,()),30) occurs(object(robot,3),action(putdown,()),30) occurs(object(robot,4),action(putdown,()),30) occurs(object(robot,7),action(putdown,()),30) occurs(object(robot,9),action(putdown,()),30)
SATISFIABLE

Models       : 1+
Calls        : 31
Time         : 3825.630s (Solving: 3817.03s 1st Model: 3618.04s Unsat: 198.97s)
CPU Time     : 3824.908s

Choices      : 38265176
Conflicts    : 5258110  (Analyzed: 5258086)
Restarts     : 10667    (Average: 492.93 Last: 5542)
Model-Level  : 1423.0  
Problems     : 31       (Average Length: 2.00 Splits: 0)
Lemmas       : 5258086  (Deleted: 4920412)
  Binary     : 18641    (Ratio:   0.35%)
  Ternary    : 74127    (Ratio:   1.41%)
  Conflict   : 5258086  (Average Length:  120.8 Ratio: 100.00%) 
  Loop       : 0        (Average Length:    0.0 Ratio:   0.00%) 
  Other      : 0        (Average Length:    0.0 Ratio:   0.00%) 
Backjumps    : 5258086  (Average:  6.62 Max: 13834 Sum: 34826773)
  Executed   : 5255787  (Average:  6.62 Max: 13834 Sum: 34822299 Ratio:  99.99%)
  Bounded    : 2299     (Average:  1.95 Max:   2 Sum:   4474 Ratio:   0.01%)

Rules        : 1291118  (Original: 1242122)
  Choice     : 360     
Atoms        : 157276   (Original: 157163 Auxiliary: 113)
Bodies       : 1139120  (Original: 1138229)
  Count      : 5406     (Original: 6461)
Equivalences : 269223   (Atom=Atom: 68684 Body=Body: 2518 Other: 198021)
Tight        : Yes
Variables    : 467393   (Eliminated:    0 Frozen: 76207)
Constraints  : 2373811  (Binary:  57.8% Ternary:  39.6% Other:   2.6%)

